19:23:19 | INFO    | Run started | run_id: SR_SV_RD_case3_P5_eps130 | log file: C:\Users\Asus\Documents\GitHub\logistics-model2\internal-logistics-model2\results\SR_SV_RD\case3\SR_SV_RD_case3_P5_eps130_2026_05_06_19_23.log
19:23:19 | INFO    | Products loaded | sheet=case3 | rows=15
19:23:19 | INFO    | Data loaded | |N|=31 |Nw|=30 |K|=1 |R|=1 |P|=5 | U=30
19:23:19 | INFO    | Big-M | time=491.0 precedence=480.0 wait=465.0 load_lb=20 load_ub=20
19:23:19 | INFO    | Set parameter Username
19:23:19 | INFO    | Set parameter LicenseID to value 2811848
19:23:19 | INFO    | Academic license - for non-commercial use only - expires 2027-04-22
19:23:19 | INFO    | Objective set | primary: min route_duration | tie-break weight on wait: 0.001
19:23:19 | INFO    | Constraint (3) added | total_wait <= 130
19:23:19 | INFO    | Constraints (4)-(9) added | route structure
19:23:19 | INFO    | Constraints (10)-(12) added | product assignment
19:23:19 | INFO    | Constraints (13)-(15) added | route timing
19:23:19 | INFO    | Constraints (16) added | time consistency
19:23:19 | INFO    | Constraints (17)-(19) added | service times
19:23:19 | INFO    | Constraints (20)-(22) added | precedence, route closure, waiting
19:23:19 | INFO    | Constraints (23)-(27) added | load propagation
19:23:19 | INFO    | Constraints (28)-(32) added | MTZ and route ordering
19:23:19 | INFO    | Set parameter TimeLimit to value 600
19:23:19 | INFO    | Set parameter MIPGap to value 0.01
19:23:19 | INFO    | Set parameter Presolve to value 2
19:23:19 | INFO    | Set parameter LogFile to value "C:\Users\Asus\Documents\GitHub\logistics-model2\internal-logistics-model2\results\SR_SV_RD\case3\result_SR_SV_RD_case3_P5_eps130_2026_05_06_19_23.log"
19:23:19 | INFO    | Solver configured | TimeLimit=600s | MIPGap=0.01 | gurobi_log=C:\Users\Asus\Documents\GitHub\logistics-model2\internal-logistics-model2\results\SR_SV_RD\case3\result_SR_SV_RD_case3_P5_eps130_2026_05_06_19_23.log
19:23:19 | INFO    | Optimization starting...
19:23:19 | INFO    | Gurobi Optimizer version 12.0.0 build v12.0.0rc1 (win64 - Windows 10.0 (19045.2))
19:23:19 | INFO    | 
19:23:19 | INFO    | CPU model: 12th Gen Intel(R) Core(TM) i7-12650H, instruction set [SSE2|AVX|AVX2]
19:23:19 | INFO    | Thread count: 10 physical cores, 16 logical processors, using up to 16 threads
19:23:19 | INFO    | 
19:23:19 | INFO    | Non-default parameters:
19:23:19 | INFO    | TimeLimit  600
19:23:19 | INFO    | MIPGap  0.01
19:23:19 | INFO    | Presolve  2
19:23:19 | INFO    | 
19:23:19 | INFO    | Optimize a model with 3852 rows, 1123 columns and 19434 nonzeros
19:23:19 | INFO    | Model fingerprint: 0x2e3f6227
19:23:19 | INFO    | Variable types: 158 continuous, 965 integer (935 binary)
19:23:19 | INFO    | Coefficient statistics:
19:23:19 | INFO    |   Matrix range     [1e+00, 5e+02]
19:23:19 | INFO    |   Objective range  [1e-03, 1e+00]
19:23:19 | INFO    |   Bounds range     [1e+00, 3e+01]
19:23:19 | INFO    |   RHS range        [1e+00, 5e+02]
19:23:19 | INFO    | Presolve removed 3712 rows and 1067 columns
19:23:19 | INFO    | Presolve time: 0.01s
19:23:19 | INFO    | Presolved: 140 rows, 56 columns, 685 nonzeros
19:23:19 | INFO    | Variable types: 20 continuous, 36 integer (30 binary)
19:23:19 | INFO    | Root relaxation presolve removed 1 rows and 0 columns
19:23:19 | INFO    | Root relaxation presolved: 139 rows, 56 columns, 680 nonzeros
19:23:19 | INFO    | 
19:23:19 | INFO    | 
19:23:19 | INFO    | Root relaxation: objective 3.598015e+01, 28 iterations, 0.00 seconds (0.00 work units)
19:23:19 | INFO    | 
19:23:19 | INFO    |     Nodes    |    Current Node    |     Objective Bounds      |     Work
19:23:19 | INFO    |  Expl Unexpl |  Obj  Depth IntInf | Incumbent    BestBd   Gap | It/Node Time
19:23:19 | INFO    | 
19:23:19 | INFO    |      0     0   35.98015    0   17          -   35.98015      -     -    0s
19:23:19 | INFO    | H    0     0                      85.1300000   35.98015  57.7%     -    0s
19:23:19 | INFO    |      0     0   55.90352    0   20   85.13000   55.90352  34.3%     -    0s
19:23:19 | INFO    |      0     0   55.90462    0   20   85.13000   55.90462  34.3%     -    0s
19:23:19 | INFO    |      0     0   60.10603    0   17   85.13000   60.10603  29.4%     -    0s
19:23:19 | INFO    |      0     0   69.09500    0   17   85.13000   69.09500  18.8%     -    0s
19:23:19 | INFO    |      0     0   71.09500    0   15   85.13000   71.09500  16.5%     -    0s
19:23:19 | INFO    |      0     0   71.09500    0    7   85.13000   71.09500  16.5%     -    0s
19:23:19 | INFO    |      0     0   71.11800    0   10   85.13000   71.11800  16.5%     -    0s
19:23:19 | INFO    |      0     0   77.11800    0   10   85.13000   77.11800  9.41%     -    0s
19:23:19 | INFO    | 
19:23:19 | INFO    | Cutting planes:
19:23:19 | INFO    |   Implied bound: 8
19:23:19 | INFO    |   MIR: 20
19:23:19 | INFO    |   StrongCG: 1
19:23:19 | INFO    |   Mod-K: 1
19:23:19 | INFO    |   RLT: 2
19:23:19 | INFO    |   Relax-and-lift: 1
19:23:19 | INFO    | 
19:23:19 | INFO    | Explored 1 nodes (123 simplex iterations) in 0.04 seconds (0.02 work units)
19:23:19 | INFO    | Thread count was 16 (of 16 available processors)
19:23:19 | INFO    | 
19:23:19 | INFO    | Solution count 1: 85.13 
19:23:19 | INFO    | 
19:23:19 | INFO    | Optimal solution found (tolerance 1.00e-02)
19:23:19 | INFO    | Best objective 8.513000000000e+01, best bound 8.513000000000e+01, gap 0.0000%
19:23:19 | INFO    | Solution found | route_duration=85.00 | total_wait=130.00
19:23:19 | INFO    | Objective=85.13 | runtime=0.04s | MIP Gap=0.00%
19:23:19 | INFO    | Generating Excel output | C:\Users\Asus\Documents\GitHub\logistics-model2\internal-logistics-model2\results\SR_SV_RD\case3\result_SR_SV_RD_case3_P5_eps130_2026_05_06_19_23.xlsx
19:23:19 | INFO    | Excel output written | 12 sheets | C:\Users\Asus\Documents\GitHub\logistics-model2\internal-logistics-model2\results\SR_SV_RD\case3\result_SR_SV_RD_case3_P5_eps130_2026_05_06_19_23.xlsx
19:23:19 | INFO    | Master Pareto updated | 7 total rows | C:\Users\Asus\Documents\GitHub\logistics-model2\internal-logistics-model2\results\master_pareto.xlsx
19:23:19 | INFO    | Run complete | run_id=SR_SV_RD_case3_P5_eps130
